%nprocshared=2
%chk=optg.chk
%Mem=1GB
#opt=(cartesian,maxcycles=50) freq uccsd/cc-pVDZ scf=qc nosymm

title name

0 2
N	0.000000000    0.000000000   -0.324503807
O	0.000000000    1.104583330    0.142043685
O	0.000000000   -1.104583330    0.142043685

