 $CONTRL SCFTYP=RHF DFTTYP=b3lyp RUNTYP=OPTIMIZE ICHARG=0 
  COORD=UNIQUE MULT=1 MAXIT=200 ISPHER=1 $END                                                                 
 $SYSTEM MWORDS=50 MEMDDI =30 $END       
 $SCF DIRSCF=.TRUE. $END       
 $CPHF CPHF=AO $END       
 $STATPT NSTEP=100 HSSEND=.T. $END
 $BASIS  GBASIS=ccd $END       
 $GUESS  GUESS=HUCKEL $END
 $DATA
  optg and freq
  C1
  C   6	 1.3820899072  0.0000000000 0.0
 C   6	 0.6910449531 -1.1969249688 0.0
 C   6	-0.6910449531 -1.1969249688 0.0
 C   6	-1.3820899072  0.0000000000 0.0
 C   6 	-0.6910449531  1.1969249688 0.0
 C   6	 0.6910449531  1.1969249688 0.0
 H   1	 2.4568717910  0.0000000000 0.0
 H   1	 1.2284358943 -2.1277133837 0.0
 H   1	-1.2284358943 -2.1277133837 0.0
 H   1	-2.4568717910  0.0000000000 0.0
 H   1 	-1.2284358943  2.1277133837 0.0
 H   1	 1.2284358943  2.1277133837 0.0
 $END