%nprocshared=2
%chk=optg.chk
%Mem=1GB
#opt=(cartesian,maxcycles=50) freq uccsd/cc-pVDZ scf=qc nosymm

title name

0 2
N	0.00000000	0.00000000	0.00000000
O	1.23680091	0.00000000	0.00000000
O	-0.61840019	-1.07110018	0.00000000
O	-0.61840019	1.07110018	0.00000000

