 $CONTRL SCFTYP=RHF MPLEVL=2 RUNTYP=OPTIMIZE ICHARG=0 
  COORD=UNIQUE MULT=1 MAXIT=200 ISPHER=1 $END                                                                 
 $SYSTEM MWORDS=100 MEMDDI =30 $END       
 $STATPT NSTEP=100 HSSEND=.T. $END
 $BASIS  GBASIS=ccd $END       
 $GUESS  GUESS=HUCKEL $END
 $DATA
  optg and freq
  C1
  C   6	 0.7040020239  1.2193673894 0.0
 C   6	 1.3632629314  0.0000000717 0.0
 C   6	 0.7040021010 -1.2193673894 0.0
 C   6	-0.6816314627 -1.1806204519 0.0
 C   6	-1.4080040150 -0.0000000200 0.0
 C   6	-0.6816315097  1.1806203946 0.0
 H   1	 1.2435379779  2.1538708923 0.0
 H   1	 1.2435378577 -2.1538709952 0.0
 H   1	-2.4870757626  0.0000000470 0.0
 F   9	 2.7073025248  0.0000000956 0.0
 F   9	-1.3536513581 -2.3445928579 0.0
 F   9	-1.3536513086  2.3445928238 0.0
 $END