 $CONTRL SCFTYP=ROHF CCTYP=ccsd RUNTYP=OPTIMIZE ICHARG=0 
  COORD=UNIQUE MULT=2 MAXIT=200 ISPHER=1 $END                                                                 
 $SYSTEM MWORDS=100 MEMDDI =50 $END       
 $STATPT NSTEP=100 HSSEND=.T. $END
 $CCINP MAXCC =100 $END
 $FORCE METHOD=FULLNUM $END
 $BASIS  GBASIS=ccd $END       
 $GUESS  GUESS=HUCKEL $END
 $DATA
  optg and freq
  C1
  N   7	-0.0000008260	0.1140767424	0.0000000000
 O   8	0.0000079730	-1.2853016970	0.0000000000
 O   8	-1.1077430442	0.5927088457	0.0000000000
 O   8	1.1077358103	0.5927220418	0.0000000000
 $END