 $CONTRL SCFTYP=ROHF CCTYP=ccsd RUNTYP=OPTIMIZE ICHARG=0 
  COORD=UNIQUE MULT=2 MAXIT=200 ISPHER=1 $END                                                                 
 $SYSTEM MWORDS=50 MEMDDI =30 $END       
 $STATPT NSTEP=100 HSSEND=.T. $END
 $CCINP MAXCC =100 $END
 $FORCE METHOD=FULLNUM $END
 $BASIS  GBASIS=ccd $END       
 $GUESS  GUESS=HUCKEL $END
 $DATA
  optg and freq
  C1
  N  7	0.000000000    0.000000000   -0.324503807
 O  8	0.000000000    1.104583330    0.142043685
 O  8	0.000000000   -1.104583330    0.142043685
 $END