%nprocshared=2
%chk=optg.chk
%Mem=1GB
#opt=(cartesian,maxcycles=50) freq b3lyp/cc-pVDZ scf=qc nosymm

title name

0 1
C	 1.3820899072  0.0000000000 0.0
C	 0.6910449531 -1.1969249688 0.0
C	-0.6910449531 -1.1969249688 0.0
C	-1.3820899072  0.0000000000 0.0
C	-0.6910449531  1.1969249688 0.0
C	 0.6910449531  1.1969249688 0.0
H	 2.4568717910  0.0000000000 0.0
H	 1.2284358943 -2.1277133837 0.0
H	-1.2284358943 -2.1277133837 0.0
H	-2.4568717910  0.0000000000 0.0
H	-1.2284358943  2.1277133837 0.0
H	 1.2284358943  2.1277133837 0.0

